(declare-fun a_ack!989 () (_ BitVec 64))
(declare-fun b_ack!988 () (_ BitVec 64))
(declare-fun FPCHECK_FADD_OVERFLOW
             ((_ FloatingPoint 11 53) (_ FloatingPoint 11 53))
             Bool)
(assert (not (fp.leq ((_ to_fp 11 53) a_ack!989) ((_ to_fp 11 53) #xbff0000000000000))))
(assert (not (fp.lt (fp.abs ((_ to_fp 11 53) a_ack!989))
            ((_ to_fp 11 53) #x3cb0000000000000))))
(assert (let ((a!1 (fp.abs (fp.div roundNearestTiesToEven
                           ((_ to_fp 11 53) b_ack!988)
                           (fp.add roundNearestTiesToEven
                                   ((_ to_fp 11 53) a_ack!989)
                                   ((_ to_fp 11 53) #x3ff0000000000000))))))
  (not (fp.lt a!1 ((_ to_fp 11 53) #x3cb0000000000000)))))
(assert (not (fp.leq (fp.add roundNearestTiesToEven
                     ((_ to_fp 11 53) a_ack!989)
                     ((_ to_fp 11 53) #x3ff0000000000000))
             ((_ to_fp 11 53) #x3fe0000000000000))))
(assert (let ((a!1 (fp.add roundNearestTiesToEven
                   (fp.sub roundNearestTiesToEven
                           (fp.add roundNearestTiesToEven
                                   ((_ to_fp 11 53) a_ack!989)
                                   ((_ to_fp 11 53) #x3ff0000000000000))
                           ((_ to_fp 11 53) #x3ff0000000000000))
                   ((_ to_fp 11 53) #x4020000000000000))))
  (FPCHECK_FADD_OVERFLOW
    (fp.mul roundNearestTiesToEven a!1 a!1)
    (fp.mul roundNearestTiesToEven
            ((_ to_fp 11 53) b_ack!988)
            ((_ to_fp 11 53) b_ack!988)))))

(check-sat)
(exit)
